
Gurobi 6.5.2 (win64) logging started 07/24/16 17:43:00


Gurobi 6.5.2 (win64) logging started 07/24/16 17:43:00

Optimize a model with 3301 rows, 770 columns and 8454 nonzeros
Coefficient statistics:
  Matrix range    [6e-08, 1e+03]
  Objective range [1e+00, 1e+00]
  Bounds range    [1e+00, 1e+00]
  RHS range       [6e-06, 2e+03]
Presolve removed 3052 rows and 513 columns
Presolve time: 0.02s
Presolved: 249 rows, 257 columns, 1064 nonzeros
Variable types: 257 continuous, 0 integer (0 binary)

Root relaxation: objective 2.062267e+01, 258 iterations, 0.00 seconds

    Nodes    |    Current Node    |     Objective Bounds      |     Work
 Expl Unexpl |  Obj  Depth IntInf | Incumbent    BestBd   Gap | It/Node Time

*    0     0               0      20.6226710   20.62267  0.00%     -    0s

Explored 0 nodes (258 simplex iterations) in 0.02 seconds
Thread count was 8 (of 8 available processors)

Optimal solution found (tolerance 1.00e-04)
Best objective 2.062267098555e+01, best bound 2.062267098555e+01, gap 0.0%

Wrote requested result file 'H1\instance24\\Results24EC_Sol3.lp'

